NAME          
ROWS
 N  OBJ
 L  c1
 L  c2
 L  c3
COLUMNS
    MARKER    'MARKER'                 'INTORG'
    x[1]      c1        391
    x[1]      c2        866
    x[1]      c3        84
    x[1]      OBJ       -425
    x[2]      c1        162
    x[2]      c2        991
    x[2]      c3        792
    x[2]      OBJ       -657
    x[3]      c1        93
    x[3]      c2        914
    x[3]      c3        695
    x[3]      OBJ       -774
    x[4]      c1        178
    x[4]      c2        265
    x[4]      c3        657
    x[4]      OBJ       -48
    x[5]      c1        26
    x[5]      c2        371
    x[5]      c3        282
    x[5]      OBJ       -25
    x[6]      c1        182
    x[6]      c2        535
    x[6]      c3        246
    x[6]      OBJ       -536
    x[7]      c1        371
    x[7]      c2        424
    x[7]      c3        564
    x[7]      OBJ       -19
    x[8]      c1        386
    x[8]      c2        821
    x[8]      c3        774
    x[8]      OBJ       -482
    x[9]      c1        445
    x[9]      c2        128
    x[9]      c3        293
    x[9]      OBJ       -853
    x[10]     c1        138
    x[10]     c2        360
    x[10]     c3        744
    x[10]     OBJ       -445
    x[11]     c1        53
    x[11]     c2        355
    x[11]     c3        357
    x[11]     OBJ       -638
    x[12]     c1        36
    x[12]     c2        174
    x[12]     c3        795
    x[12]     OBJ       -454
    x[13]     c1        309
    x[13]     c2        891
    x[13]     c3        182
    x[13]     OBJ       -46
    x[14]     c1        697
    x[14]     c2        532
    x[14]     c3        447
    x[14]     OBJ       -452
    x[15]     c1        56
    x[15]     c2        942
    x[15]     c3        688
    x[15]     OBJ       -687
RHS
    rhs       c1        1762
    rhs       c2        4284
    rhs       c3        3800
RANGES
BOUNDS
 LO bounds    x[1]      0
 PL bounds    x[1]
 LO bounds    x[2]      0
 PL bounds    x[2]
 LO bounds    x[3]      0
 PL bounds    x[3]
 LO bounds    x[4]      0
 PL bounds    x[4]
 LO bounds    x[5]      0
 PL bounds    x[5]
 LO bounds    x[6]      0
 PL bounds    x[6]
 LO bounds    x[7]      0
 PL bounds    x[7]
 LO bounds    x[8]      0
 PL bounds    x[8]
 LO bounds    x[9]      0
 PL bounds    x[9]
 LO bounds    x[10]     0
 PL bounds    x[10]
 LO bounds    x[11]     0
 PL bounds    x[11]
 LO bounds    x[12]     0
 PL bounds    x[12]
 LO bounds    x[13]     0
 PL bounds    x[13]
 LO bounds    x[14]     0
 PL bounds    x[14]
 LO bounds    x[15]     0
 PL bounds    x[15]
ENDATA
